p cnf 62 164
1 -41 -37 0
-1 41 -37 0
1 41 -38 0
-1 -41 -38 0
19 -41 -39 0
-19 41 -39 0
19 41 -40 0
-19 -41 -40 0
2 -42 -37 0
-2 42 -37 0
2 42 -38 0
-2 -42 -38 0
20 -42 -39 0
-20 42 -39 0
20 42 -40 0
-20 -42 -40 0
3 -43 -37 0
-3 43 -37 0
3 43 -38 0
-3 -43 -38 0
21 -43 -39 0
-21 43 -39 0
21 43 -40 0
-21 -43 -40 0
4 -44 -37 0
-4 44 -37 0
4 44 -38 0
-4 -44 -38 0
22 -44 -39 0
-22 44 -39 0
22 44 -40 0
-22 -44 -40 0
5 -37 0
5 -38 0
37 -37 0
38 -38 0
23 -39 0
23 -40 0
39 -39 0
40 -40 0
6 -37 0
6 -38 0
37 -37 0
38 -38 0
24 -39 0
24 -40 0
39 -39 0
40 -40 0
7 -37 0
7 -38 0
37 -37 0
38 -38 0
25 -39 0
25 -40 0
39 -39 0
40 -40 0
8 -37 0
8 -38 0
37 -37 0
38 -38 0
26 -39 0
26 -40 0
39 -39 0
40 -40 0
9 -37 0
9 -38 0
37 -37 0
38 -38 0
27 -39 0
27 -40 0
39 -39 0
40 -40 0
10 -45 -37 0
-10 45 -37 0
10 45 -38 0
-10 -45 -38 0
28 -45 -39 0
-28 45 -39 0
28 45 -40 0
-28 -45 -40 0
11 -37 0
11 -38 0
37 -37 0
38 -38 0
29 -39 0
29 -40 0
39 -39 0
40 -40 0
12 -37 0
12 -38 0
37 -37 0
38 -38 0
30 -39 0
30 -40 0
39 -39 0
40 -40 0
13 -46 -37 0
-13 46 -37 0
13 46 -38 0
-13 -46 -38 0
31 -46 -39 0
-31 46 -39 0
31 46 -40 0
-31 -46 -40 0
14 -47 -37 0
-14 47 -37 0
14 47 -38 0
-14 -47 -38 0
32 -47 -39 0
-32 47 -39 0
32 47 -40 0
-32 -47 -40 0
15 -48 -37 0
-15 48 -37 0
15 48 -38 0
-15 -48 -38 0
33 -48 -39 0
-33 48 -39 0
33 48 -40 0
-33 -48 -40 0
16 -37 0
16 -38 0
37 -37 0
38 -38 0
34 -39 0
34 -40 0
39 -39 0
40 -40 0
17 -49 -37 0
-17 49 -37 0
17 49 -38 0
-17 -49 -38 0
35 -49 -39 0
-35 49 -39 0
35 49 -40 0
-35 -49 -40 0
18 -37 0
18 -38 0
37 -37 0
38 -38 0
36 -39 0
36 -40 0
39 -39 0
40 -40 0
-59 37 0
59 -37 0
-60 38 0
59 -38 0
-59 -37 0
-60 -38 0
-61 37 59 0
61 -37 0
61 -59 0
-62 38 60 0
62 -38 0
62 -60 0
-61 -39 0
-62 -40 0
61 0
62 0
-37 40 0
-38 0
-39 0
-40 37 0
